p cnf 449 2990
6 7 8 9 10 11 0
-6 -7 0
-6 -8 0
-6 -9 0
-6 -10 0
-6 -11 0
-7 -8 0
-7 -9 0
-7 -10 0
-7 -11 0
-8 -9 0
-8 -10 0
-8 -11 0
-9 -10 0
-9 -11 0
-10 -11 0
12 13 14 15 16 17 0
-12 -13 0
-12 -14 0
-12 -15 0
-12 -16 0
-12 -17 0
-13 -14 0
-13 -15 0
-13 -16 0
-13 -17 0
-14 -15 0
-14 -16 0
-14 -17 0
-15 -16 0
-15 -17 0
-16 -17 0
18 19 20 21 22 23 0
-18 -19 0
-18 -20 0
-18 -21 0
-18 -22 0
-18 -23 0
-19 -20 0
-19 -21 0
-19 -22 0
-19 -23 0
-20 -21 0
-20 -22 0
-20 -23 0
-21 -22 0
-21 -23 0
-22 -23 0
24 25 26 27 28 29 0
-24 -25 0
-24 -26 0
-24 -27 0
-24 -28 0
-24 -29 0
-25 -26 0
-25 -27 0
-25 -28 0
-25 -29 0
-26 -27 0
-26 -28 0
-26 -29 0
-27 -28 0
-27 -29 0
-28 -29 0
30 31 32 33 34 35 0
-30 -31 0
-30 -32 0
-30 -33 0
-30 -34 0
-30 -35 0
-31 -32 0
-31 -33 0
-31 -34 0
-31 -35 0
-32 -33 0
-32 -34 0
-32 -35 0
-33 -34 0
-33 -35 0
-34 -35 0
36 37 38 39 40 41 0
-36 -37 0
-36 -38 0
-36 -39 0
-36 -40 0
-36 -41 0
-37 -38 0
-37 -39 0
-37 -40 0
-37 -41 0
-38 -39 0
-38 -40 0
-38 -41 0
-39 -40 0
-39 -41 0
-40 -41 0
42 43 44 45 46 47 0
-42 -43 0
-42 -44 0
-42 -45 0
-42 -46 0
-42 -47 0
-43 -44 0
-43 -45 0
-43 -46 0
-43 -47 0
-44 -45 0
-44 -46 0
-44 -47 0
-45 -46 0
-45 -47 0
-46 -47 0
48 49 50 51 52 53 0
-48 -49 0
-48 -50 0
-48 -51 0
-48 -52 0
-48 -53 0
-49 -50 0
-49 -51 0
-49 -52 0
-49 -53 0
-50 -51 0
-50 -52 0
-50 -53 0
-51 -52 0
-51 -53 0
-52 -53 0
54 55 56 57 58 59 0
-54 -55 0
-54 -56 0
-54 -57 0
-54 -58 0
-54 -59 0
-55 -56 0
-55 -57 0
-55 -58 0
-55 -59 0
-56 -57 0
-56 -58 0
-56 -59 0
-57 -58 0
-57 -59 0
-58 -59 0
60 61 62 63 64 65 0
-60 -61 0
-60 -62 0
-60 -63 0
-60 -64 0
-60 -65 0
-61 -62 0
-61 -63 0
-61 -64 0
-61 -65 0
-62 -63 0
-62 -64 0
-62 -65 0
-63 -64 0
-63 -65 0
-64 -65 0
66 67 68 69 70 71 0
-66 -67 0
-66 -68 0
-66 -69 0
-66 -70 0
-66 -71 0
-67 -68 0
-67 -69 0
-67 -70 0
-67 -71 0
-68 -69 0
-68 -70 0
-68 -71 0
-69 -70 0
-69 -71 0
-70 -71 0
72 73 74 75 76 77 0
-72 -73 0
-72 -74 0
-72 -75 0
-72 -76 0
-72 -77 0
-73 -74 0
-73 -75 0
-73 -76 0
-73 -77 0
-74 -75 0
-74 -76 0
-74 -77 0
-75 -76 0
-75 -77 0
-76 -77 0
78 79 80 81 82 83 0
-78 -79 0
-78 -80 0
-78 -81 0
-78 -82 0
-78 -83 0
-79 -80 0
-79 -81 0
-79 -82 0
-79 -83 0
-80 -81 0
-80 -82 0
-80 -83 0
-81 -82 0
-81 -83 0
-82 -83 0
84 85 86 87 88 89 0
-84 -85 0
-84 -86 0
-84 -87 0
-84 -88 0
-84 -89 0
-85 -86 0
-85 -87 0
-85 -88 0
-85 -89 0
-86 -87 0
-86 -88 0
-86 -89 0
-87 -88 0
-87 -89 0
-88 -89 0
90 91 92 93 94 95 0
-90 -91 0
-90 -92 0
-90 -93 0
-90 -94 0
-90 -95 0
-91 -92 0
-91 -93 0
-91 -94 0
-91 -95 0
-92 -93 0
-92 -94 0
-92 -95 0
-93 -94 0
-93 -95 0
-94 -95 0
96 97 98 99 100 101 0
-96 -97 0
-96 -98 0
-96 -99 0
-96 -100 0
-96 -101 0
-97 -98 0
-97 -99 0
-97 -100 0
-97 -101 0
-98 -99 0
-98 -100 0
-98 -101 0
-99 -100 0
-99 -101 0
-100 -101 0
102 103 104 105 106 107 0
-102 -103 0
-102 -104 0
-102 -105 0
-102 -106 0
-102 -107 0
-103 -104 0
-103 -105 0
-103 -106 0
-103 -107 0
-104 -105 0
-104 -106 0
-104 -107 0
-105 -106 0
-105 -107 0
-106 -107 0
108 109 110 111 112 113 0
-108 -109 0
-108 -110 0
-108 -111 0
-108 -112 0
-108 -113 0
-109 -110 0
-109 -111 0
-109 -112 0
-109 -113 0
-110 -111 0
-110 -112 0
-110 -113 0
-111 -112 0
-111 -113 0
-112 -113 0
114 115 116 117 118 119 0
-114 -115 0
-114 -116 0
-114 -117 0
-114 -118 0
-114 -119 0
-115 -116 0
-115 -117 0
-115 -118 0
-115 -119 0
-116 -117 0
-116 -118 0
-116 -119 0
-117 -118 0
-117 -119 0
-118 -119 0
120 121 122 123 124 125 0
-120 -121 0
-120 -122 0
-120 -123 0
-120 -124 0
-120 -125 0
-121 -122 0
-121 -123 0
-121 -124 0
-121 -125 0
-122 -123 0
-122 -124 0
-122 -125 0
-123 -124 0
-123 -125 0
-124 -125 0
126 127 128 129 130 131 0
-126 -127 0
-126 -128 0
-126 -129 0
-126 -130 0
-126 -131 0
-127 -128 0
-127 -129 0
-127 -130 0
-127 -131 0
-128 -129 0
-128 -130 0
-128 -131 0
-129 -130 0
-129 -131 0
-130 -131 0
132 133 134 135 136 137 0
-132 -133 0
-132 -134 0
-132 -135 0
-132 -136 0
-132 -137 0
-133 -134 0
-133 -135 0
-133 -136 0
-133 -137 0
-134 -135 0
-134 -136 0
-134 -137 0
-135 -136 0
-135 -137 0
-136 -137 0
138 139 140 141 142 143 0
-138 -139 0
-138 -140 0
-138 -141 0
-138 -142 0
-138 -143 0
-139 -140 0
-139 -141 0
-139 -142 0
-139 -143 0
-140 -141 0
-140 -142 0
-140 -143 0
-141 -142 0
-141 -143 0
-142 -143 0
144 145 146 147 148 149 0
-144 -145 0
-144 -146 0
-144 -147 0
-144 -148 0
-144 -149 0
-145 -146 0
-145 -147 0
-145 -148 0
-145 -149 0
-146 -147 0
-146 -148 0
-146 -149 0
-147 -148 0
-147 -149 0
-148 -149 0
150 151 152 153 154 155 0
-150 -151 0
-150 -152 0
-150 -153 0
-150 -154 0
-150 -155 0
-151 -152 0
-151 -153 0
-151 -154 0
-151 -155 0
-152 -153 0
-152 -154 0
-152 -155 0
-153 -154 0
-153 -155 0
-154 -155 0
156 157 158 159 160 161 0
-156 -157 0
-156 -158 0
-156 -159 0
-156 -160 0
-156 -161 0
-157 -158 0
-157 -159 0
-157 -160 0
-157 -161 0
-158 -159 0
-158 -160 0
-158 -161 0
-159 -160 0
-159 -161 0
-160 -161 0
162 163 164 165 166 167 0
-162 -163 0
-162 -164 0
-162 -165 0
-162 -166 0
-162 -167 0
-163 -164 0
-163 -165 0
-163 -166 0
-163 -167 0
-164 -165 0
-164 -166 0
-164 -167 0
-165 -166 0
-165 -167 0
-166 -167 0
168 169 170 171 172 173 0
-168 -169 0
-168 -170 0
-168 -171 0
-168 -172 0
-168 -173 0
-169 -170 0
-169 -171 0
-169 -172 0
-169 -173 0
-170 -171 0
-170 -172 0
-170 -173 0
-171 -172 0
-171 -173 0
-172 -173 0
174 175 176 177 178 179 0
-174 -175 0
-174 -176 0
-174 -177 0
-174 -178 0
-174 -179 0
-175 -176 0
-175 -177 0
-175 -178 0
-175 -179 0
-176 -177 0
-176 -178 0
-176 -179 0
-177 -178 0
-177 -179 0
-178 -179 0
180 181 182 183 184 185 0
-180 -181 0
-180 -182 0
-180 -183 0
-180 -184 0
-180 -185 0
-181 -182 0
-181 -183 0
-181 -184 0
-181 -185 0
-182 -183 0
-182 -184 0
-182 -185 0
-183 -184 0
-183 -185 0
-184 -185 0
186 187 188 189 190 191 0
-186 -187 0
-186 -188 0
-186 -189 0
-186 -190 0
-186 -191 0
-187 -188 0
-187 -189 0
-187 -190 0
-187 -191 0
-188 -189 0
-188 -190 0
-188 -191 0
-189 -190 0
-189 -191 0
-190 -191 0
192 193 194 195 196 197 0
-192 -193 0
-192 -194 0
-192 -195 0
-192 -196 0
-192 -197 0
-193 -194 0
-193 -195 0
-193 -196 0
-193 -197 0
-194 -195 0
-194 -196 0
-194 -197 0
-195 -196 0
-195 -197 0
-196 -197 0
198 199 200 201 202 203 0
-198 -199 0
-198 -200 0
-198 -201 0
-198 -202 0
-198 -203 0
-199 -200 0
-199 -201 0
-199 -202 0
-199 -203 0
-200 -201 0
-200 -202 0
-200 -203 0
-201 -202 0
-201 -203 0
-202 -203 0
204 205 206 207 208 209 0
-204 -205 0
-204 -206 0
-204 -207 0
-204 -208 0
-204 -209 0
-205 -206 0
-205 -207 0
-205 -208 0
-205 -209 0
-206 -207 0
-206 -208 0
-206 -209 0
-207 -208 0
-207 -209 0
-208 -209 0
210 211 212 213 214 215 0
-210 -211 0
-210 -212 0
-210 -213 0
-210 -214 0
-210 -215 0
-211 -212 0
-211 -213 0
-211 -214 0
-211 -215 0
-212 -213 0
-212 -214 0
-212 -215 0
-213 -214 0
-213 -215 0
-214 -215 0
216 217 218 219 220 221 0
-216 -217 0
-216 -218 0
-216 -219 0
-216 -220 0
-216 -221 0
-217 -218 0
-217 -219 0
-217 -220 0
-217 -221 0
-218 -219 0
-218 -220 0
-218 -221 0
-219 -220 0
-219 -221 0
-220 -221 0
222 223 224 225 226 227 0
-222 -223 0
-222 -224 0
-222 -225 0
-222 -226 0
-222 -227 0
-223 -224 0
-223 -225 0
-223 -226 0
-223 -227 0
-224 -225 0
-224 -226 0
-224 -227 0
-225 -226 0
-225 -227 0
-226 -227 0
228 229 230 231 232 233 0
-228 -229 0
-228 -230 0
-228 -231 0
-228 -232 0
-228 -233 0
-229 -230 0
-229 -231 0
-229 -232 0
-229 -233 0
-230 -231 0
-230 -232 0
-230 -233 0
-231 -232 0
-231 -233 0
-232 -233 0
234 235 236 237 238 239 0
-234 -235 0
-234 -236 0
-234 -237 0
-234 -238 0
-234 -239 0
-235 -236 0
-235 -237 0
-235 -238 0
-235 -239 0
-236 -237 0
-236 -238 0
-236 -239 0
-237 -238 0
-237 -239 0
-238 -239 0
240 241 242 243 244 245 0
-240 -241 0
-240 -242 0
-240 -243 0
-240 -244 0
-240 -245 0
-241 -242 0
-241 -243 0
-241 -244 0
-241 -245 0
-242 -243 0
-242 -244 0
-242 -245 0
-243 -244 0
-243 -245 0
-244 -245 0
246 247 248 249 250 251 0
-246 -247 0
-246 -248 0
-246 -249 0
-246 -250 0
-246 -251 0
-247 -248 0
-247 -249 0
-247 -250 0
-247 -251 0
-248 -249 0
-248 -250 0
-248 -251 0
-249 -250 0
-249 -251 0
-250 -251 0
252 253 254 255 256 257 0
-252 -253 0
-252 -254 0
-252 -255 0
-252 -256 0
-252 -257 0
-253 -254 0
-253 -255 0
-253 -256 0
-253 -257 0
-254 -255 0
-254 -256 0
-254 -257 0
-255 -256 0
-255 -257 0
-256 -257 0
258 259 260 261 262 263 0
-258 -259 0
-258 -260 0
-258 -261 0
-258 -262 0
-258 -263 0
-259 -260 0
-259 -261 0
-259 -262 0
-259 -263 0
-260 -261 0
-260 -262 0
-260 -263 0
-261 -262 0
-261 -263 0
-262 -263 0
264 265 266 267 268 269 0
-264 -265 0
-264 -266 0
-264 -267 0
-264 -268 0
-264 -269 0
-265 -266 0
-265 -267 0
-265 -268 0
-265 -269 0
-266 -267 0
-266 -268 0
-266 -269 0
-267 -268 0
-267 -269 0
-268 -269 0
270 271 272 273 274 275 0
-270 -271 0
-270 -272 0
-270 -273 0
-270 -274 0
-270 -275 0
-271 -272 0
-271 -273 0
-271 -274 0
-271 -275 0
-272 -273 0
-272 -274 0
-272 -275 0
-273 -274 0
-273 -275 0
-274 -275 0
276 277 278 279 280 281 0
-276 -277 0
-276 -278 0
-276 -279 0
-276 -280 0
-276 -281 0
-277 -278 0
-277 -279 0
-277 -280 0
-277 -281 0
-278 -279 0
-278 -280 0
-278 -281 0
-279 -280 0
-279 -281 0
-280 -281 0
282 283 284 285 286 287 0
-282 -283 0
-282 -284 0
-282 -285 0
-282 -286 0
-282 -287 0
-283 -284 0
-283 -285 0
-283 -286 0
-283 -287 0
-284 -285 0
-284 -286 0
-284 -287 0
-285 -286 0
-285 -287 0
-286 -287 0
288 289 290 291 292 293 0
-288 -289 0
-288 -290 0
-288 -291 0
-288 -292 0
-288 -293 0
-289 -290 0
-289 -291 0
-289 -292 0
-289 -293 0
-290 -291 0
-290 -292 0
-290 -293 0
-291 -292 0
-291 -293 0
-292 -293 0
294 295 296 297 298 299 0
-294 -295 0
-294 -296 0
-294 -297 0
-294 -298 0
-294 -299 0
-295 -296 0
-295 -297 0
-295 -298 0
-295 -299 0
-296 -297 0
-296 -298 0
-296 -299 0
-297 -298 0
-297 -299 0
-298 -299 0
300 301 302 303 304 305 0
-300 -301 0
-300 -302 0
-300 -303 0
-300 -304 0
-300 -305 0
-301 -302 0
-301 -303 0
-301 -304 0
-301 -305 0
-302 -303 0
-302 -304 0
-302 -305 0
-303 -304 0
-303 -305 0
-304 -305 0
306 307 308 309 310 311 0
-306 -307 0
-306 -308 0
-306 -309 0
-306 -310 0
-306 -311 0
-307 -308 0
-307 -309 0
-307 -310 0
-307 -311 0
-308 -309 0
-308 -310 0
-308 -311 0
-309 -310 0
-309 -311 0
-310 -311 0
312 313 314 315 316 317 0
-312 -313 0
-312 -314 0
-312 -315 0
-312 -316 0
-312 -317 0
-313 -314 0
-313 -315 0
-313 -316 0
-313 -317 0
-314 -315 0
-314 -316 0
-314 -317 0
-315 -316 0
-315 -317 0
-316 -317 0
318 319 320 321 322 323 0
-318 -319 0
-318 -320 0
-318 -321 0
-318 -322 0
-318 -323 0
-319 -320 0
-319 -321 0
-319 -322 0
-319 -323 0
-320 -321 0
-320 -322 0
-320 -323 0
-321 -322 0
-321 -323 0
-322 -323 0
324 325 326 327 328 329 0
-324 -325 0
-324 -326 0
-324 -327 0
-324 -328 0
-324 -329 0
-325 -326 0
-325 -327 0
-325 -328 0
-325 -329 0
-326 -327 0
-326 -328 0
-326 -329 0
-327 -328 0
-327 -329 0
-328 -329 0
330 331 332 333 334 335 0
-330 -331 0
-330 -332 0
-330 -333 0
-330 -334 0
-330 -335 0
-331 -332 0
-331 -333 0
-331 -334 0
-331 -335 0
-332 -333 0
-332 -334 0
-332 -335 0
-333 -334 0
-333 -335 0
-334 -335 0
336 337 338 339 340 341 0
-336 -337 0
-336 -338 0
-336 -339 0
-336 -340 0
-336 -341 0
-337 -338 0
-337 -339 0
-337 -340 0
-337 -341 0
-338 -339 0
-338 -340 0
-338 -341 0
-339 -340 0
-339 -341 0
-340 -341 0
342 343 344 345 346 347 0
-342 -343 0
-342 -344 0
-342 -345 0
-342 -346 0
-342 -347 0
-343 -344 0
-343 -345 0
-343 -346 0
-343 -347 0
-344 -345 0
-344 -346 0
-344 -347 0
-345 -346 0
-345 -347 0
-346 -347 0
348 349 350 351 352 353 0
-348 -349 0
-348 -350 0
-348 -351 0
-348 -352 0
-348 -353 0
-349 -350 0
-349 -351 0
-349 -352 0
-349 -353 0
-350 -351 0
-350 -352 0
-350 -353 0
-351 -352 0
-351 -353 0
-352 -353 0
354 355 356 357 358 359 0
-354 -355 0
-354 -356 0
-354 -357 0
-354 -358 0
-354 -359 0
-355 -356 0
-355 -357 0
-355 -358 0
-355 -359 0
-356 -357 0
-356 -358 0
-356 -359 0
-357 -358 0
-357 -359 0
-358 -359 0
360 361 362 363 364 365 0
-360 -361 0
-360 -362 0
-360 -363 0
-360 -364 0
-360 -365 0
-361 -362 0
-361 -363 0
-361 -364 0
-361 -365 0
-362 -363 0
-362 -364 0
-362 -365 0
-363 -364 0
-363 -365 0
-364 -365 0
366 367 368 369 370 371 0
-366 -367 0
-366 -368 0
-366 -369 0
-366 -370 0
-366 -371 0
-367 -368 0
-367 -369 0
-367 -370 0
-367 -371 0
-368 -369 0
-368 -370 0
-368 -371 0
-369 -370 0
-369 -371 0
-370 -371 0
372 373 374 375 376 377 0
-372 -373 0
-372 -374 0
-372 -375 0
-372 -376 0
-372 -377 0
-373 -374 0
-373 -375 0
-373 -376 0
-373 -377 0
-374 -375 0
-374 -376 0
-374 -377 0
-375 -376 0
-375 -377 0
-376 -377 0
378 379 380 381 382 383 0
-378 -379 0
-378 -380 0
-378 -381 0
-378 -382 0
-378 -383 0
-379 -380 0
-379 -381 0
-379 -382 0
-379 -383 0
-380 -381 0
-380 -382 0
-380 -383 0
-381 -382 0
-381 -383 0
-382 -383 0
384 385 386 387 388 389 0
-384 -385 0
-384 -386 0
-384 -387 0
-384 -388 0
-384 -389 0
-385 -386 0
-385 -387 0
-385 -388 0
-385 -389 0
-386 -387 0
-386 -388 0
-386 -389 0
-387 -388 0
-387 -389 0
-388 -389 0
390 391 392 393 394 395 0
-390 -391 0
-390 -392 0
-390 -393 0
-390 -394 0
-390 -395 0
-391 -392 0
-391 -393 0
-391 -394 0
-391 -395 0
-392 -393 0
-392 -394 0
-392 -395 0
-393 -394 0
-393 -395 0
-394 -395 0
396 397 398 399 400 401 0
-396 -397 0
-396 -398 0
-396 -399 0
-396 -400 0
-396 -401 0
-397 -398 0
-397 -399 0
-397 -400 0
-397 -401 0
-398 -399 0
-398 -400 0
-398 -401 0
-399 -400 0
-399 -401 0
-400 -401 0
402 403 404 405 406 407 0
-402 -403 0
-402 -404 0
-402 -405 0
-402 -406 0
-402 -407 0
-403 -404 0
-403 -405 0
-403 -406 0
-403 -407 0
-404 -405 0
-404 -406 0
-404 -407 0
-405 -406 0
-405 -407 0
-406 -407 0
408 409 410 411 412 413 0
-408 -409 0
-408 -410 0
-408 -411 0
-408 -412 0
-408 -413 0
-409 -410 0
-409 -411 0
-409 -412 0
-409 -413 0
-410 -411 0
-410 -412 0
-410 -413 0
-411 -412 0
-411 -413 0
-412 -413 0
414 415 416 417 418 419 0
-414 -415 0
-414 -416 0
-414 -417 0
-414 -418 0
-414 -419 0
-415 -416 0
-415 -417 0
-415 -418 0
-415 -419 0
-416 -417 0
-416 -418 0
-416 -419 0
-417 -418 0
-417 -419 0
-418 -419 0
420 421 422 423 424 425 0
-420 -421 0
-420 -422 0
-420 -423 0
-420 -424 0
-420 -425 0
-421 -422 0
-421 -423 0
-421 -424 0
-421 -425 0
-422 -423 0
-422 -424 0
-422 -425 0
-423 -424 0
-423 -425 0
-424 -425 0
426 427 428 429 430 431 0
-426 -427 0
-426 -428 0
-426 -429 0
-426 -430 0
-426 -431 0
-427 -428 0
-427 -429 0
-427 -430 0
-427 -431 0
-428 -429 0
-428 -430 0
-428 -431 0
-429 -430 0
-429 -431 0
-430 -431 0
432 433 434 435 436 437 0
-432 -433 0
-432 -434 0
-432 -435 0
-432 -436 0
-432 -437 0
-433 -434 0
-433 -435 0
-433 -436 0
-433 -437 0
-434 -435 0
-434 -436 0
-434 -437 0
-435 -436 0
-435 -437 0
-436 -437 0
438 439 440 441 442 443 0
-438 -439 0
-438 -440 0
-438 -441 0
-438 -442 0
-438 -443 0
-439 -440 0
-439 -441 0
-439 -442 0
-439 -443 0
-440 -441 0
-440 -442 0
-440 -443 0
-441 -442 0
-441 -443 0
-442 -443 0
444 445 446 447 448 449 0
-444 -445 0
-444 -446 0
-444 -447 0
-444 -448 0
-444 -449 0
-445 -446 0
-445 -447 0
-445 -448 0
-445 -449 0
-446 -447 0
-446 -448 0
-446 -449 0
-447 -448 0
-447 -449 0
-448 -449 0
-6 -24 0
-7 -25 0
-8 -26 0
-9 -27 0
-10 -28 0
-11 -29 0
-6 -414 0
-7 -415 0
-8 -416 0
-9 -417 0
-10 -418 0
-11 -419 0
-6 -30 0
-7 -31 0
-8 -32 0
-9 -33 0
-10 -34 0
-11 -35 0
-6 -240 0
-7 -241 0
-8 -242 0
-9 -243 0
-10 -244 0
-11 -245 0
-6 -54 0
-7 -55 0
-8 -56 0
-9 -57 0
-10 -58 0
-11 -59 0
-6 -60 0
-7 -61 0
-8 -62 0
-9 -63 0
-10 -64 0
-11 -65 0
-6 -66 0
-7 -67 0
-8 -68 0
-9 -69 0
-10 -70 0
-11 -71 0
-6 -264 0
-7 -265 0
-8 -266 0
-9 -267 0
-10 -268 0
-11 -269 0
-6 -78 0
-7 -79 0
-8 -80 0
-9 -81 0
-10 -82 0
-11 -83 0
-6 -432 0
-7 -433 0
-8 -434 0
-9 -435 0
-10 -436 0
-11 -437 0
-6 -294 0
-7 -295 0
-8 -296 0
-9 -297 0
-10 -298 0
-11 -299 0
-6 -300 0
-7 -301 0
-8 -302 0
-9 -303 0
-10 -304 0
-11 -305 0
-6 -132 0
-7 -133 0
-8 -134 0
-9 -135 0
-10 -136 0
-11 -137 0
-6 -330 0
-7 -331 0
-8 -332 0
-9 -333 0
-10 -334 0
-11 -335 0
-6 -150 0
-7 -151 0
-8 -152 0
-9 -153 0
-10 -154 0
-11 -155 0
-6 -354 0
-7 -355 0
-8 -356 0
-9 -357 0
-10 -358 0
-11 -359 0
-6 -174 0
-7 -175 0
-8 -176 0
-9 -177 0
-10 -178 0
-11 -179 0
-6 -378 0
-7 -379 0
-8 -380 0
-9 -381 0
-10 -382 0
-11 -383 0
-12 -24 0
-13 -25 0
-14 -26 0
-15 -27 0
-16 -28 0
-17 -29 0
-12 -246 0
-13 -247 0
-14 -248 0
-15 -249 0
-16 -250 0
-17 -251 0
-12 -444 0
-13 -445 0
-14 -446 0
-15 -447 0
-16 -448 0
-17 -449 0
-12 -258 0
-13 -259 0
-14 -260 0
-15 -261 0
-16 -262 0
-17 -263 0
-12 -276 0
-13 -277 0
-14 -278 0
-15 -279 0
-16 -280 0
-17 -281 0
-12 -306 0
-13 -307 0
-14 -308 0
-15 -309 0
-16 -310 0
-17 -311 0
-12 -330 0
-13 -331 0
-14 -332 0
-15 -333 0
-16 -334 0
-17 -335 0
-12 -342 0
-13 -343 0
-14 -344 0
-15 -345 0
-16 -346 0
-17 -347 0
-12 -372 0
-13 -373 0
-14 -374 0
-15 -375 0
-16 -376 0
-17 -377 0
-18 -54 0
-19 -55 0
-20 -56 0
-21 -57 0
-22 -58 0
-23 -59 0
-18 -312 0
-19 -313 0
-20 -314 0
-21 -315 0
-22 -316 0
-23 -317 0
-18 -318 0
-19 -319 0
-20 -320 0
-21 -321 0
-22 -322 0
-23 -323 0
-18 -330 0
-19 -331 0
-20 -332 0
-21 -333 0
-22 -334 0
-23 -335 0
-24 -54 0
-25 -55 0
-26 -56 0
-27 -57 0
-28 -58 0
-29 -59 0
-24 -72 0
-25 -73 0
-26 -74 0
-27 -75 0
-28 -76 0
-29 -77 0
-24 -114 0
-25 -115 0
-26 -116 0
-27 -117 0
-28 -118 0
-29 -119 0
-24 -132 0
-25 -133 0
-26 -134 0
-27 -135 0
-28 -136 0
-29 -137 0
-24 -162 0
-25 -163 0
-26 -164 0
-27 -165 0
-28 -166 0
-29 -167 0
-24 -192 0
-25 -193 0
-26 -194 0
-27 -195 0
-28 -196 0
-29 -197 0
-24 -246 0
-25 -247 0
-26 -248 0
-27 -249 0
-28 -250 0
-29 -251 0
-24 -258 0
-25 -259 0
-26 -260 0
-27 -261 0
-28 -262 0
-29 -263 0
-24 -270 0
-25 -271 0
-26 -272 0
-27 -273 0
-28 -274 0
-29 -275 0
-24 -276 0
-25 -277 0
-26 -278 0
-27 -279 0
-28 -280 0
-29 -281 0
-24 -282 0
-25 -283 0
-26 -284 0
-27 -285 0
-28 -286 0
-29 -287 0
-24 -294 0
-25 -295 0
-26 -296 0
-27 -297 0
-28 -298 0
-29 -299 0
-24 -330 0
-25 -331 0
-26 -332 0
-27 -333 0
-28 -334 0
-29 -335 0
-24 -336 0
-25 -337 0
-26 -338 0
-27 -339 0
-28 -340 0
-29 -341 0
-24 -342 0
-25 -343 0
-26 -344 0
-27 -345 0
-28 -346 0
-29 -347 0
-24 -360 0
-25 -361 0
-26 -362 0
-27 -363 0
-28 -364 0
-29 -365 0
-24 -372 0
-25 -373 0
-26 -374 0
-27 -375 0
-28 -376 0
-29 -377 0
-24 -378 0
-25 -379 0
-26 -380 0
-27 -381 0
-28 -382 0
-29 -383 0
-24 -402 0
-25 -403 0
-26 -404 0
-27 -405 0
-28 -406 0
-29 -407 0
-24 -408 0
-25 -409 0
-26 -410 0
-27 -411 0
-28 -412 0
-29 -413 0
-24 -414 0
-25 -415 0
-26 -416 0
-27 -417 0
-28 -418 0
-29 -419 0
-24 -426 0
-25 -427 0
-26 -428 0
-27 -429 0
-28 -430 0
-29 -431 0
-24 -438 0
-25 -439 0
-26 -440 0
-27 -441 0
-28 -442 0
-29 -443 0
-30 -240 0
-31 -241 0
-32 -242 0
-33 -243 0
-34 -244 0
-35 -245 0
-30 -66 0
-31 -67 0
-32 -68 0
-33 -69 0
-34 -70 0
-35 -71 0
-30 -78 0
-31 -79 0
-32 -80 0
-33 -81 0
-34 -82 0
-35 -83 0
-30 -294 0
-31 -295 0
-32 -296 0
-33 -297 0
-34 -298 0
-35 -299 0
-30 -300 0
-31 -301 0
-32 -302 0
-33 -303 0
-34 -304 0
-35 -305 0
-30 -330 0
-31 -331 0
-32 -332 0
-33 -333 0
-34 -334 0
-35 -335 0
-30 -150 0
-31 -151 0
-32 -152 0
-33 -153 0
-34 -154 0
-35 -155 0
-30 -354 0
-31 -355 0
-32 -356 0
-33 -357 0
-34 -358 0
-35 -359 0
-30 -174 0
-31 -175 0
-32 -176 0
-33 -177 0
-34 -178 0
-35 -179 0
-36 -384 0
-37 -385 0
-38 -386 0
-39 -387 0
-40 -388 0
-41 -389 0
-36 -204 0
-37 -205 0
-38 -206 0
-39 -207 0
-40 -208 0
-41 -209 0
-36 -234 0
-37 -235 0
-38 -236 0
-39 -237 0
-40 -238 0
-41 -239 0
-36 -102 0
-37 -103 0
-38 -104 0
-39 -105 0
-40 -106 0
-41 -107 0
-36 -120 0
-37 -121 0
-38 -122 0
-39 -123 0
-40 -124 0
-41 -125 0
-36 -126 0
-37 -127 0
-38 -128 0
-39 -129 0
-40 -130 0
-41 -131 0
-36 -330 0
-37 -331 0
-38 -332 0
-39 -333 0
-40 -334 0
-41 -335 0
-36 -138 0
-37 -139 0
-38 -140 0
-39 -141 0
-40 -142 0
-41 -143 0
-42 -420 0
-43 -421 0
-44 -422 0
-45 -423 0
-46 -424 0
-47 -425 0
-48 -228 0
-49 -229 0
-50 -230 0
-51 -231 0
-52 -232 0
-53 -233 0
-48 -54 0
-49 -55 0
-50 -56 0
-51 -57 0
-52 -58 0
-53 -59 0
-48 -264 0
-49 -265 0
-50 -266 0
-51 -267 0
-52 -268 0
-53 -269 0
-48 -84 0
-49 -85 0
-50 -86 0
-51 -87 0
-52 -88 0
-53 -89 0
-48 -108 0
-49 -109 0
-50 -110 0
-51 -111 0
-52 -112 0
-53 -113 0
-48 -312 0
-49 -313 0
-50 -314 0
-51 -315 0
-52 -316 0
-53 -317 0
-48 -186 0
-49 -187 0
-50 -188 0
-51 -189 0
-52 -190 0
-53 -191 0
-54 -396 0
-55 -397 0
-56 -398 0
-57 -399 0
-58 -400 0
-59 -401 0
-54 -414 0
-55 -415 0
-56 -416 0
-57 -417 0
-58 -418 0
-59 -419 0
-54 -228 0
-55 -229 0
-56 -230 0
-57 -231 0
-58 -232 0
-59 -233 0
-54 -432 0
-55 -433 0
-56 -434 0
-57 -435 0
-58 -436 0
-59 -437 0
-54 -60 0
-55 -61 0
-56 -62 0
-57 -63 0
-58 -64 0
-59 -65 0
-54 -264 0
-55 -265 0
-56 -266 0
-57 -267 0
-58 -268 0
-59 -269 0
-54 -84 0
-55 -85 0
-56 -86 0
-57 -87 0
-58 -88 0
-59 -89 0
-54 -294 0
-55 -295 0
-56 -296 0
-57 -297 0
-58 -298 0
-59 -299 0
-54 -108 0
-55 -109 0
-56 -110 0
-57 -111 0
-58 -112 0
-59 -113 0
-54 -312 0
-55 -313 0
-56 -314 0
-57 -315 0
-58 -316 0
-59 -317 0
-54 -318 0
-55 -319 0
-56 -320 0
-57 -321 0
-58 -322 0
-59 -323 0
-54 -132 0
-55 -133 0
-56 -134 0
-57 -135 0
-58 -136 0
-59 -137 0
-54 -330 0
-55 -331 0
-56 -332 0
-57 -333 0
-58 -334 0
-59 -335 0
-54 -186 0
-55 -187 0
-56 -188 0
-57 -189 0
-58 -190 0
-59 -191 0
-60 -432 0
-61 -433 0
-62 -434 0
-63 -435 0
-64 -436 0
-65 -437 0
-60 -294 0
-61 -295 0
-62 -296 0
-63 -297 0
-64 -298 0
-65 -299 0
-60 -330 0
-61 -331 0
-62 -332 0
-63 -333 0
-64 -334 0
-65 -335 0
-66 -240 0
-67 -241 0
-68 -242 0
-69 -243 0
-70 -244 0
-71 -245 0
-66 -78 0
-67 -79 0
-68 -80 0
-69 -81 0
-70 -82 0
-71 -83 0
-66 -294 0
-67 -295 0
-68 -296 0
-69 -297 0
-70 -298 0
-71 -299 0
-66 -300 0
-67 -301 0
-68 -302 0
-69 -303 0
-70 -304 0
-71 -305 0
-66 -330 0
-67 -331 0
-68 -332 0
-69 -333 0
-70 -334 0
-71 -335 0
-66 -150 0
-67 -151 0
-68 -152 0
-69 -153 0
-70 -154 0
-71 -155 0
-66 -354 0
-67 -355 0
-68 -356 0
-69 -357 0
-70 -358 0
-71 -359 0
-66 -174 0
-67 -175 0
-68 -176 0
-69 -177 0
-70 -178 0
-71 -179 0
-72 -402 0
-73 -403 0
-74 -404 0
-75 -405 0
-76 -406 0
-77 -407 0
-72 -438 0
-73 -439 0
-74 -440 0
-75 -441 0
-76 -442 0
-77 -443 0
-72 -246 0
-73 -247 0
-74 -248 0
-75 -249 0
-76 -250 0
-77 -251 0
-72 -258 0
-73 -259 0
-74 -260 0
-75 -261 0
-76 -262 0
-77 -263 0
-72 -282 0
-73 -283 0
-74 -284 0
-75 -285 0
-76 -286 0
-77 -287 0
-72 -330 0
-73 -331 0
-74 -332 0
-75 -333 0
-76 -334 0
-77 -335 0
-72 -342 0
-73 -343 0
-74 -344 0
-75 -345 0
-76 -346 0
-77 -347 0
-72 -372 0
-73 -373 0
-74 -374 0
-75 -375 0
-76 -376 0
-77 -377 0
-78 -240 0
-79 -241 0
-80 -242 0
-81 -243 0
-82 -244 0
-83 -245 0
-78 -294 0
-79 -295 0
-80 -296 0
-81 -297 0
-82 -298 0
-83 -299 0
-78 -300 0
-79 -301 0
-80 -302 0
-81 -303 0
-82 -304 0
-83 -305 0
-78 -330 0
-79 -331 0
-80 -332 0
-81 -333 0
-82 -334 0
-83 -335 0
-78 -150 0
-79 -151 0
-80 -152 0
-81 -153 0
-82 -154 0
-83 -155 0
-78 -354 0
-79 -355 0
-80 -356 0
-81 -357 0
-82 -358 0
-83 -359 0
-78 -174 0
-79 -175 0
-80 -176 0
-81 -177 0
-82 -178 0
-83 -179 0
-84 -228 0
-85 -229 0
-86 -230 0
-87 -231 0
-88 -232 0
-89 -233 0
-84 -264 0
-85 -265 0
-86 -266 0
-87 -267 0
-88 -268 0
-89 -269 0
-84 -108 0
-85 -109 0
-86 -110 0
-87 -111 0
-88 -112 0
-89 -113 0
-84 -312 0
-85 -313 0
-86 -314 0
-87 -315 0
-88 -316 0
-89 -317 0
-84 -186 0
-85 -187 0
-86 -188 0
-87 -189 0
-88 -190 0
-89 -191 0
-90 -132 0
-91 -133 0
-92 -134 0
-93 -135 0
-94 -136 0
-95 -137 0
-90 -330 0
-91 -331 0
-92 -332 0
-93 -333 0
-94 -334 0
-95 -335 0
-96 -390 0
-97 -391 0
-98 -392 0
-99 -393 0
-100 -394 0
-101 -395 0
-96 -330 0
-97 -331 0
-98 -332 0
-99 -333 0
-100 -334 0
-101 -335 0
-102 -384 0
-103 -385 0
-104 -386 0
-105 -387 0
-106 -388 0
-107 -389 0
-102 -204 0
-103 -205 0
-104 -206 0
-105 -207 0
-106 -208 0
-107 -209 0
-102 -234 0
-103 -235 0
-104 -236 0
-105 -237 0
-106 -238 0
-107 -239 0
-102 -120 0
-103 -121 0
-104 -122 0
-105 -123 0
-106 -124 0
-107 -125 0
-102 -126 0
-103 -127 0
-104 -128 0
-105 -129 0
-106 -130 0
-107 -131 0
-102 -330 0
-103 -331 0
-104 -332 0
-105 -333 0
-106 -334 0
-107 -335 0
-102 -138 0
-103 -139 0
-104 -140 0
-105 -141 0
-106 -142 0
-107 -143 0
-102 -168 0
-103 -169 0
-104 -170 0
-105 -171 0
-106 -172 0
-107 -173 0
-102 -180 0
-103 -181 0
-104 -182 0
-105 -183 0
-106 -184 0
-107 -185 0
-108 -228 0
-109 -229 0
-110 -230 0
-111 -231 0
-112 -232 0
-113 -233 0
-108 -264 0
-109 -265 0
-110 -266 0
-111 -267 0
-112 -268 0
-113 -269 0
-108 -312 0
-109 -313 0
-110 -314 0
-111 -315 0
-112 -316 0
-113 -317 0
-108 -132 0
-109 -133 0
-110 -134 0
-111 -135 0
-112 -136 0
-113 -137 0
-108 -330 0
-109 -331 0
-110 -332 0
-111 -333 0
-112 -334 0
-113 -335 0
-108 -144 0
-109 -145 0
-110 -146 0
-111 -147 0
-112 -148 0
-113 -149 0
-108 -186 0
-109 -187 0
-110 -188 0
-111 -189 0
-112 -190 0
-113 -191 0
-114 -408 0
-115 -409 0
-116 -410 0
-117 -411 0
-118 -412 0
-119 -413 0
-114 -438 0
-115 -439 0
-116 -440 0
-117 -441 0
-118 -442 0
-119 -443 0
-114 -246 0
-115 -247 0
-116 -248 0
-117 -249 0
-118 -250 0
-119 -251 0
-114 -330 0
-115 -331 0
-116 -332 0
-117 -333 0
-118 -334 0
-119 -335 0
-114 -336 0
-115 -337 0
-116 -338 0
-117 -339 0
-118 -340 0
-119 -341 0
-114 -342 0
-115 -343 0
-116 -344 0
-117 -345 0
-118 -346 0
-119 -347 0
-114 -162 0
-115 -163 0
-116 -164 0
-117 -165 0
-118 -166 0
-119 -167 0
-114 -360 0
-115 -361 0
-116 -362 0
-117 -363 0
-118 -364 0
-119 -365 0
-120 -384 0
-121 -385 0
-122 -386 0
-123 -387 0
-124 -388 0
-125 -389 0
-120 -204 0
-121 -205 0
-122 -206 0
-123 -207 0
-124 -208 0
-125 -209 0
-120 -234 0
-121 -235 0
-122 -236 0
-123 -237 0
-124 -238 0
-125 -239 0
-120 -126 0
-121 -127 0
-122 -128 0
-123 -129 0
-124 -130 0
-125 -131 0
-120 -330 0
-121 -331 0
-122 -332 0
-123 -333 0
-124 -334 0
-125 -335 0
-120 -138 0
-121 -139 0
-122 -140 0
-123 -141 0
-124 -142 0
-125 -143 0
-126 -384 0
-127 -385 0
-128 -386 0
-129 -387 0
-130 -388 0
-131 -389 0
-126 -204 0
-127 -205 0
-128 -206 0
-129 -207 0
-130 -208 0
-131 -209 0
-126 -234 0
-127 -235 0
-128 -236 0
-129 -237 0
-130 -238 0
-131 -239 0
-126 -330 0
-127 -331 0
-128 -332 0
-129 -333 0
-130 -334 0
-131 -335 0
-126 -138 0
-127 -139 0
-128 -140 0
-129 -141 0
-130 -142 0
-131 -143 0
-132 -396 0
-133 -397 0
-134 -398 0
-135 -399 0
-136 -400 0
-137 -401 0
-132 -414 0
-133 -415 0
-134 -416 0
-135 -417 0
-136 -418 0
-137 -419 0
-132 -246 0
-133 -247 0
-134 -248 0
-135 -249 0
-136 -250 0
-137 -251 0
-132 -252 0
-133 -253 0
-134 -254 0
-135 -255 0
-136 -256 0
-137 -257 0
-132 -264 0
-133 -265 0
-134 -266 0
-135 -267 0
-136 -268 0
-137 -269 0
-132 -294 0
-133 -295 0
-134 -296 0
-135 -297 0
-136 -298 0
-137 -299 0
-132 -330 0
-133 -331 0
-134 -332 0
-135 -333 0
-136 -334 0
-137 -335 0
-132 -342 0
-133 -343 0
-134 -344 0
-135 -345 0
-136 -346 0
-137 -347 0
-132 -156 0
-133 -157 0
-134 -158 0
-135 -159 0
-136 -160 0
-137 -161 0
-132 -366 0
-133 -367 0
-134 -368 0
-135 -369 0
-136 -370 0
-137 -371 0
-132 -378 0
-133 -379 0
-134 -380 0
-135 -381 0
-136 -382 0
-137 -383 0
-138 -384 0
-139 -385 0
-140 -386 0
-141 -387 0
-142 -388 0
-143 -389 0
-138 -204 0
-139 -205 0
-140 -206 0
-141 -207 0
-142 -208 0
-143 -209 0
-138 -234 0
-139 -235 0
-140 -236 0
-141 -237 0
-142 -238 0
-143 -239 0
-138 -330 0
-139 -331 0
-140 -332 0
-141 -333 0
-142 -334 0
-143 -335 0
-138 -180 0
-139 -181 0
-140 -182 0
-141 -183 0
-142 -184 0
-143 -185 0
-144 -252 0
-145 -253 0
-146 -254 0
-147 -255 0
-148 -256 0
-149 -257 0
-144 -330 0
-145 -331 0
-146 -332 0
-147 -333 0
-148 -334 0
-149 -335 0
-144 -186 0
-145 -187 0
-146 -188 0
-147 -189 0
-148 -190 0
-149 -191 0
-150 -240 0
-151 -241 0
-152 -242 0
-153 -243 0
-154 -244 0
-155 -245 0
-150 -294 0
-151 -295 0
-152 -296 0
-153 -297 0
-154 -298 0
-155 -299 0
-150 -300 0
-151 -301 0
-152 -302 0
-153 -303 0
-154 -304 0
-155 -305 0
-150 -330 0
-151 -331 0
-152 -332 0
-153 -333 0
-154 -334 0
-155 -335 0
-150 -354 0
-151 -355 0
-152 -356 0
-153 -357 0
-154 -358 0
-155 -359 0
-150 -174 0
-151 -175 0
-152 -176 0
-153 -177 0
-154 -178 0
-155 -179 0
-162 -408 0
-163 -409 0
-164 -410 0
-165 -411 0
-166 -412 0
-167 -413 0
-162 -438 0
-163 -439 0
-164 -440 0
-165 -441 0
-166 -442 0
-167 -443 0
-162 -246 0
-163 -247 0
-164 -248 0
-165 -249 0
-166 -250 0
-167 -251 0
-162 -330 0
-163 -331 0
-164 -332 0
-165 -333 0
-166 -334 0
-167 -335 0
-162 -336 0
-163 -337 0
-164 -338 0
-165 -339 0
-166 -340 0
-167 -341 0
-162 -342 0
-163 -343 0
-164 -344 0
-165 -345 0
-166 -346 0
-167 -347 0
-162 -360 0
-163 -361 0
-164 -362 0
-165 -363 0
-166 -364 0
-167 -365 0
-162 -372 0
-163 -373 0
-164 -374 0
-165 -375 0
-166 -376 0
-167 -377 0
-174 -240 0
-175 -241 0
-176 -242 0
-177 -243 0
-178 -244 0
-179 -245 0
-174 -294 0
-175 -295 0
-176 -296 0
-177 -297 0
-178 -298 0
-179 -299 0
-174 -300 0
-175 -301 0
-176 -302 0
-177 -303 0
-178 -304 0
-179 -305 0
-174 -330 0
-175 -331 0
-176 -332 0
-177 -333 0
-178 -334 0
-179 -335 0
-174 -354 0
-175 -355 0
-176 -356 0
-177 -357 0
-178 -358 0
-179 -359 0
-180 -330 0
-181 -331 0
-182 -332 0
-183 -333 0
-184 -334 0
-185 -335 0
-186 -228 0
-187 -229 0
-188 -230 0
-189 -231 0
-190 -232 0
-191 -233 0
-186 -264 0
-187 -265 0
-188 -266 0
-189 -267 0
-190 -268 0
-191 -269 0
-186 -312 0
-187 -313 0
-188 -314 0
-189 -315 0
-190 -316 0
-191 -317 0
-186 -330 0
-187 -331 0
-188 -332 0
-189 -333 0
-190 -334 0
-191 -335 0
-192 -426 0
-193 -427 0
-194 -428 0
-195 -429 0
-196 -430 0
-197 -431 0
-198 -294 0
-199 -295 0
-200 -296 0
-201 -297 0
-202 -298 0
-203 -299 0
-204 -384 0
-205 -385 0
-206 -386 0
-207 -387 0
-208 -388 0
-209 -389 0
-204 -234 0
-205 -235 0
-206 -236 0
-207 -237 0
-208 -238 0
-209 -239 0
-204 -330 0
-205 -331 0
-206 -332 0
-207 -333 0
-208 -334 0
-209 -335 0
-210 -288 0
-211 -289 0
-212 -290 0
-213 -291 0
-214 -292 0
-215 -293 0
-210 -348 0
-211 -349 0
-212 -350 0
-213 -351 0
-214 -352 0
-215 -353 0
-216 -342 0
-217 -343 0
-218 -344 0
-219 -345 0
-220 -346 0
-221 -347 0
-216 -360 0
-217 -361 0
-218 -362 0
-219 -363 0
-220 -364 0
-221 -365 0
-216 -246 0
-217 -247 0
-218 -248 0
-219 -249 0
-220 -250 0
-221 -251 0
-216 -330 0
-217 -331 0
-218 -332 0
-219 -333 0
-220 -334 0
-221 -335 0
-222 -432 0
-223 -433 0
-224 -434 0
-225 -435 0
-226 -436 0
-227 -437 0
-222 -294 0
-223 -295 0
-224 -296 0
-225 -297 0
-226 -298 0
-227 -299 0
-228 -264 0
-229 -265 0
-230 -266 0
-231 -267 0
-232 -268 0
-233 -269 0
-228 -312 0
-229 -313 0
-230 -314 0
-231 -315 0
-232 -316 0
-233 -317 0
-234 -384 0
-235 -385 0
-236 -386 0
-237 -387 0
-238 -388 0
-239 -389 0
-234 -330 0
-235 -331 0
-236 -332 0
-237 -333 0
-238 -334 0
-239 -335 0
-240 -294 0
-241 -295 0
-242 -296 0
-243 -297 0
-244 -298 0
-245 -299 0
-240 -300 0
-241 -301 0
-242 -302 0
-243 -303 0
-244 -304 0
-245 -305 0
-240 -330 0
-241 -331 0
-242 -332 0
-243 -333 0
-244 -334 0
-245 -335 0
-240 -354 0
-241 -355 0
-242 -356 0
-243 -357 0
-244 -358 0
-245 -359 0
-246 -402 0
-247 -403 0
-248 -404 0
-249 -405 0
-250 -406 0
-251 -407 0
-246 -408 0
-247 -409 0
-248 -410 0
-249 -411 0
-250 -412 0
-251 -413 0
-246 -438 0
-247 -439 0
-248 -440 0
-249 -441 0
-250 -442 0
-251 -443 0
-246 -444 0
-247 -445 0
-248 -446 0
-249 -447 0
-250 -448 0
-251 -449 0
-246 -258 0
-247 -259 0
-248 -260 0
-249 -261 0
-250 -262 0
-251 -263 0
-246 -276 0
-247 -277 0
-248 -278 0
-249 -279 0
-250 -280 0
-251 -281 0
-246 -282 0
-247 -283 0
-248 -284 0
-249 -285 0
-250 -286 0
-251 -287 0
-246 -306 0
-247 -307 0
-248 -308 0
-249 -309 0
-250 -310 0
-251 -311 0
-246 -330 0
-247 -331 0
-248 -332 0
-249 -333 0
-250 -334 0
-251 -335 0
-246 -336 0
-247 -337 0
-248 -338 0
-249 -339 0
-250 -340 0
-251 -341 0
-246 -342 0
-247 -343 0
-248 -344 0
-249 -345 0
-250 -346 0
-251 -347 0
-246 -360 0
-247 -361 0
-248 -362 0
-249 -363 0
-250 -364 0
-251 -365 0
-246 -372 0
-247 -373 0
-248 -374 0
-249 -375 0
-250 -376 0
-251 -377 0
-252 -330 0
-253 -331 0
-254 -332 0
-255 -333 0
-256 -334 0
-257 -335 0
-258 -402 0
-259 -403 0
-260 -404 0
-261 -405 0
-262 -406 0
-263 -407 0
-258 -438 0
-259 -439 0
-260 -440 0
-261 -441 0
-262 -442 0
-263 -443 0
-258 -444 0
-259 -445 0
-260 -446 0
-261 -447 0
-262 -448 0
-263 -449 0
-258 -282 0
-259 -283 0
-260 -284 0
-261 -285 0
-262 -286 0
-263 -287 0
-258 -306 0
-259 -307 0
-260 -308 0
-261 -309 0
-262 -310 0
-263 -311 0
-258 -342 0
-259 -343 0
-260 -344 0
-261 -345 0
-262 -346 0
-263 -347 0
-264 -294 0
-265 -295 0
-266 -296 0
-267 -297 0
-268 -298 0
-269 -299 0
-264 -312 0
-265 -313 0
-266 -314 0
-267 -315 0
-268 -316 0
-269 -317 0
-264 -330 0
-265 -331 0
-266 -332 0
-267 -333 0
-268 -334 0
-269 -335 0
-270 -426 0
-271 -427 0
-272 -428 0
-273 -429 0
-274 -430 0
-275 -431 0
-276 -330 0
-277 -331 0
-278 -332 0
-279 -333 0
-280 -334 0
-281 -335 0
-276 -342 0
-277 -343 0
-278 -344 0
-279 -345 0
-280 -346 0
-281 -347 0
-276 -372 0
-277 -373 0
-278 -374 0
-279 -375 0
-280 -376 0
-281 -377 0
-282 -402 0
-283 -403 0
-284 -404 0
-285 -405 0
-286 -406 0
-287 -407 0
-282 -438 0
-283 -439 0
-284 -440 0
-285 -441 0
-286 -442 0
-287 -443 0
-282 -330 0
-283 -331 0
-284 -332 0
-285 -333 0
-286 -334 0
-287 -335 0
-282 -342 0
-283 -343 0
-284 -344 0
-285 -345 0
-286 -346 0
-287 -347 0
-282 -372 0
-283 -373 0
-284 -374 0
-285 -375 0
-286 -376 0
-287 -377 0
-288 -348 0
-289 -349 0
-290 -350 0
-291 -351 0
-292 -352 0
-293 -353 0
-294 -414 0
-295 -415 0
-296 -416 0
-297 -417 0
-298 -418 0
-299 -419 0
-294 -432 0
-295 -433 0
-296 -434 0
-297 -435 0
-298 -436 0
-299 -437 0
-294 -300 0
-295 -301 0
-296 -302 0
-297 -303 0
-298 -304 0
-299 -305 0
-294 -330 0
-295 -331 0
-296 -332 0
-297 -333 0
-298 -334 0
-299 -335 0
-294 -354 0
-295 -355 0
-296 -356 0
-297 -357 0
-298 -358 0
-299 -359 0
-300 -330 0
-301 -331 0
-302 -332 0
-303 -333 0
-304 -334 0
-305 -335 0
-300 -354 0
-301 -355 0
-302 -356 0
-303 -357 0
-304 -358 0
-305 -359 0
-306 -444 0
-307 -445 0
-308 -446 0
-309 -447 0
-310 -448 0
-311 -449 0
-306 -342 0
-307 -343 0
-308 -344 0
-309 -345 0
-310 -346 0
-311 -347 0
-312 -318 0
-313 -319 0
-314 -320 0
-315 -321 0
-316 -322 0
-317 -323 0
-312 -330 0
-313 -331 0
-314 -332 0
-315 -333 0
-316 -334 0
-317 -335 0
-318 -330 0
-319 -331 0
-320 -332 0
-321 -333 0
-322 -334 0
-323 -335 0
-324 -330 0
-325 -331 0
-326 -332 0
-327 -333 0
-328 -334 0
-329 -335 0
-330 -336 0
-331 -337 0
-332 -338 0
-333 -339 0
-334 -340 0
-335 -341 0
-330 -342 0
-331 -343 0
-332 -344 0
-333 -345 0
-334 -346 0
-335 -347 0
-330 -354 0
-331 -355 0
-332 -356 0
-333 -357 0
-334 -358 0
-335 -359 0
-330 -360 0
-331 -361 0
-332 -362 0
-333 -363 0
-334 -364 0
-335 -365 0
-330 -372 0
-331 -373 0
-332 -374 0
-333 -375 0
-334 -376 0
-335 -377 0
-330 -384 0
-331 -385 0
-332 -386 0
-333 -387 0
-334 -388 0
-335 -389 0
-330 -390 0
-331 -391 0
-332 -392 0
-333 -393 0
-334 -394 0
-335 -395 0
-330 -396 0
-331 -397 0
-332 -398 0
-333 -399 0
-334 -400 0
-335 -401 0
-330 -402 0
-331 -403 0
-332 -404 0
-333 -405 0
-334 -406 0
-335 -407 0
-330 -408 0
-331 -409 0
-332 -410 0
-333 -411 0
-334 -412 0
-335 -413 0
-330 -414 0
-331 -415 0
-332 -416 0
-333 -417 0
-334 -418 0
-335 -419 0
-330 -432 0
-331 -433 0
-332 -434 0
-333 -435 0
-334 -436 0
-335 -437 0
-330 -438 0
-331 -439 0
-332 -440 0
-333 -441 0
-334 -442 0
-335 -443 0
-336 -408 0
-337 -409 0
-338 -410 0
-339 -411 0
-340 -412 0
-341 -413 0
-336 -438 0
-337 -439 0
-338 -440 0
-339 -441 0
-340 -442 0
-341 -443 0
-336 -342 0
-337 -343 0
-338 -344 0
-339 -345 0
-340 -346 0
-341 -347 0
-336 -360 0
-337 -361 0
-338 -362 0
-339 -363 0
-340 -364 0
-341 -365 0
-342 -402 0
-343 -403 0
-344 -404 0
-345 -405 0
-346 -406 0
-347 -407 0
-342 -408 0
-343 -409 0
-344 -410 0
-345 -411 0
-346 -412 0
-347 -413 0
-342 -438 0
-343 -439 0
-344 -440 0
-345 -441 0
-346 -442 0
-347 -443 0
-342 -444 0
-343 -445 0
-344 -446 0
-345 -447 0
-346 -448 0
-347 -449 0
-342 -360 0
-343 -361 0
-344 -362 0
-345 -363 0
-346 -364 0
-347 -365 0
-342 -372 0
-343 -373 0
-344 -374 0
-345 -375 0
-346 -376 0
-347 -377 0
-360 -408 0
-361 -409 0
-362 -410 0
-363 -411 0
-364 -412 0
-365 -413 0
-360 -438 0
-361 -439 0
-362 -440 0
-363 -441 0
-364 -442 0
-365 -443 0
-372 -402 0
-373 -403 0
-374 -404 0
-375 -405 0
-376 -406 0
-377 -407 0
-402 -438 0
-403 -439 0
-404 -440 0
-405 -441 0
-406 -442 0
-407 -443 0
-408 -438 0
-409 -439 0
-410 -440 0
-411 -441 0
-412 -442 0
-413 -443 0
